Route #1: 1 45 21 53 11 38 26 20 1 
Route #2: 1 36 50 5 28 39 49 29 35 15 10 1 
Route #3: 1 17 9 33 22 31 8 13 32 1 
Route #4: 1 1 6 16 52 30 4 1 
Route #5: 1 44 3 12 2 27 14 51 34 1 
Route #6: 1 7 18 23 43 25 41 46 42 24 37 1 
Route #7: 1 19 40 48 47 1 

Cost 1456.11
Time 0.4429


 * Another infos *

 Iterations: 54 Time: 0.4429 sec - 0.0074 min - 0.0001 horas
0.0000 h 0.0074 min
Problem dimension: 54
